;symbolic execution tree
(push)
(assert (le x0 java.lang.Object))
(check-sat)
(push)
(assert (le x1 java.lang.Object))
(check-sat)
(push)
(assert (= x1 java.lang.Boolean))
(check-sat)
(push)
(assert (= x1 java.lang.Boolean))
(check-sat)
(push)
(assert (le x0 java.util.Vector))
(check-sat)
(pop)
(push)
(assert (not (le x0 java.util.Vector)))
(check-sat)
(push)
(assert (le x0 java.util.Vector))
(check-sat)
(pop)
(push)
(assert (not (le x0 java.util.Vector)))
(check-sat)
(pop)
(push)
(assert (le x0 java.util.Vector))
(check-sat)
(pop)
(push)
(assert (not (le x0 java.util.Vector)))
(check-sat)
(pop)
(pop)
(pop)
(push)
(assert (not (= x1 java.lang.Boolean)))
(check-sat)
(pop)
(push)
(assert (= x1 java.lang.Boolean))
(check-sat)
(push)
(assert (= x1 java.lang.Boolean))
(check-sat)
(pop)
(push)
(assert (not (= x1 java.lang.Boolean)))
(check-sat)
(pop)
(push)
(assert (= x1 java.lang.Boolean))
(check-sat)
(pop)
(push)
(assert (not (= x1 java.lang.Boolean)))
(check-sat)
(pop)
(pop)
(push)
(assert (not (= x1 java.lang.Boolean)))
(check-sat)
(pop)
(push)
(assert (= x1 java.lang.Boolean))
(check-sat)
(pop)
(push)
(assert (not (= x1 java.lang.Boolean)))
(check-sat)
(pop)
(push)
(assert (le x0 weka.core.Instances))
(check-sat)
(push)
(assert (= x1 java.lang.Boolean))
(check-sat)
(pop)
(push)
(assert (not (= x1 java.lang.Boolean)))
(check-sat)
(pop)
(pop)
(push)
(assert (not (le x0 weka.core.Instances)))
(check-sat)
(push)
(assert (le x0 weka.core.Instances))
(check-sat)
(pop)
(push)
(assert (not (le x0 weka.core.Instances)))
(check-sat)
(push)
(assert (le x0 weka.core.Instances))
(check-sat)
(pop)
(push)
(assert (not (le x0 weka.core.Instances)))
(check-sat)
(pop)
(push)
(assert (le x0 weka.core.Instances))
(check-sat)
(pop)
(push)
(assert (not (le x0 weka.core.Instances)))
(check-sat)
(pop)
(push)
(assert (le x0 weka.core.Instances))
(check-sat)
(pop)
(push)
(assert (not (le x0 weka.core.Instances)))
(check-sat)
(pop)
(pop)
(pop)
(push)
(assert (le x0 weka.core.Instances))
(check-sat)
(push)
(assert (= x1 java.lang.Boolean))
(check-sat)
(pop)
(push)
(assert (not (= x1 java.lang.Boolean)))
(check-sat)
(pop)
(push)
(assert (le x0 weka.core.Instances))
(check-sat)
(pop)
(push)
(assert (not (le x0 weka.core.Instances)))
(check-sat)
(pop)
(push)
(assert (le x0 weka.core.Instances))
(check-sat)
(push)
(assert (= x1 java.lang.Boolean))
(check-sat)
(pop)
(push)
(assert (not (= x1 java.lang.Boolean)))
(check-sat)
(pop)
(push)
(assert (= x1 java.lang.Boolean))
(check-sat)
(pop)
(push)
(assert (not (= x1 java.lang.Boolean)))
(check-sat)
(pop)
(pop)
(push)
(assert (not (le x0 weka.core.Instances)))
(check-sat)
(pop)
(push)
(assert (le x0 weka.core.Instances))
(check-sat)
(pop)
(push)
(assert (not (le x0 weka.core.Instances)))
(check-sat)
(pop)
(push)
(assert (= x1 java.lang.Boolean))
(check-sat)
(push)
(assert (le x0 weka.core.Instances))
(check-sat)
(push)
(assert (le x0 weka.core.Instances))
(check-sat)
(pop)
(push)
(assert (not (le x0 weka.core.Instances)))
(check-sat)
(pop)
(pop)
(push)
(assert (not (le x0 weka.core.Instances)))
(check-sat)
(pop)
(pop)
(push)
(assert (not (= x1 java.lang.Boolean)))
(check-sat)
(pop)
(push)
(assert (le x0 weka.core.Instances))
(check-sat)
(pop)
(push)
(assert (not (le x0 weka.core.Instances)))
(check-sat)
(pop)
(push)
(assert (le x0 weka.core.Instances))
(check-sat)
(pop)
(push)
(assert (not (le x0 weka.core.Instances)))
(check-sat)
(pop)
(pop)
(push)
(assert (not (le x0 weka.core.Instances)))
(check-sat)
(push)
(assert (le x0 weka.core.Instances))
(check-sat)
(pop)
(push)
(assert (not (le x0 weka.core.Instances)))
(check-sat)
(push)
(assert (= x1 java.lang.Boolean))
(check-sat)
(push)
(assert (le x0 weka.core.Instances))
(check-sat)
(pop)
(push)
(assert (not (le x0 weka.core.Instances)))
(check-sat)
(pop)
(pop)
(push)
(assert (not (= x1 java.lang.Boolean)))
(check-sat)
(pop)
(pop)
(push)
(assert (= x1 java.lang.Boolean))
(check-sat)
(pop)
(push)
(assert (not (= x1 java.lang.Boolean)))
(check-sat)
(pop)
(push)
(assert (le x0 weka.core.Instances))
(check-sat)
(pop)
(push)
(assert (not (le x0 weka.core.Instances)))
(check-sat)
(push)
(assert (= x1 java.lang.Boolean))
(check-sat)
(pop)
(push)
(assert (not (= x1 java.lang.Boolean)))
(check-sat)
(pop)
(pop)
(push)
(assert (le x0 weka.core.Instances))
(check-sat)
(pop)
(push)
(assert (not (le x0 weka.core.Instances)))
(check-sat)
(push)
(assert (le x0 weka.core.Instances))
(check-sat)
(pop)
(push)
(assert (not (le x0 weka.core.Instances)))
(check-sat)
(pop)
(push)
(assert (le x0 weka.core.Instances))
(check-sat)
(pop)
(push)
(assert (not (le x0 weka.core.Instances)))
(check-sat)
(pop)
(pop)
(push)
(assert (le x0 weka.core.Instances))
(check-sat)
(pop)
(push)
(assert (not (le x0 weka.core.Instances)))
(check-sat)
(pop)
(pop)
(push)
(assert (= x1 java.lang.Boolean))
(check-sat)
(push)
(assert (le x0 java.util.HashSet))
(check-sat)
(pop)
(push)
(assert (not (le x0 java.util.HashSet)))
(check-sat)
(pop)
(push)
(assert (le x0 weka.core.FastVector))
(check-sat)
(push)
(assert (le x0 weka.core.FastVector))
(check-sat)
(push)
(assert (le x0 weka.core.FastVector))
(check-sat)
(pop)
(push)
(assert (not (le x0 weka.core.FastVector)))
(check-sat)
(pop)
(pop)
(push)
(assert (not (le x0 weka.core.FastVector)))
(check-sat)
(pop)
(pop)
(push)
(assert (not (le x0 weka.core.FastVector)))
(check-sat)
(pop)
(pop)
(push)
(assert (not (= x1 java.lang.Boolean)))
(check-sat)
(pop)
(push)
(assert (le x0 weka.core.Instance))
(check-sat)
(push)
(assert (le x0 weka.core.Instance))
(check-sat)
(push)
(assert (= x1 java.lang.Boolean))
(check-sat)
(pop)
(push)
(assert (not (= x1 java.lang.Boolean)))
(check-sat)
(pop)
(pop)
(push)
(assert (not (le x0 weka.core.Instance)))
(check-sat)
(pop)
(pop)
(push)
(assert (not (le x0 weka.core.Instance)))
(check-sat)
(push)
(assert (= x1 java.lang.Boolean))
(check-sat)
(pop)
(push)
(assert (not (= x1 java.lang.Boolean)))
(check-sat)
(pop)
(push)
(assert (= x1 java.lang.Boolean))
(check-sat)
(pop)
(push)
(assert (not (= x1 java.lang.Boolean)))
(check-sat)
(pop)
(push)
(assert (le x0 weka.core.Instance))
(check-sat)
(pop)
(push)
(assert (not (le x0 weka.core.Instance)))
(check-sat)
(pop)
(pop)
(push)
(assert (= x1 java.lang.Boolean))
(check-sat)
(pop)
(push)
(assert (not (= x1 java.lang.Boolean)))
(check-sat)
(pop)
(push)
(assert (le x0 weka.core.Instances))
(check-sat)
(push)
(assert (= x1 java.lang.Boolean))
(check-sat)
(pop)
(push)
(assert (not (= x1 java.lang.Boolean)))
(check-sat)
(pop)
(push)
(assert (le x0 weka.core.Instances))
(check-sat)
(push)
(assert (le x0 weka.core.Instances))
(check-sat)
(push)
(assert (le x0 weka.core.Instances))
(check-sat)
(pop)
(push)
(assert (not (le x0 weka.core.Instances)))
(check-sat)
(pop)
(pop)
(push)
(assert (not (le x0 weka.core.Instances)))
(check-sat)
(pop)
(push)
(assert (= x1 java.lang.Boolean))
(check-sat)
(pop)
(push)
(assert (not (= x1 java.lang.Boolean)))
(check-sat)
(pop)
(push)
(assert (le x0 weka.core.Instances))
(check-sat)
(push)
(assert (= x1 java.lang.Boolean))
(check-sat)
(pop)
(push)
(assert (not (= x1 java.lang.Boolean)))
(check-sat)
(pop)
(pop)
(push)
(assert (not (le x0 weka.core.Instances)))
(check-sat)
(pop)
(pop)
(push)
(assert (not (le x0 weka.core.Instances)))
(check-sat)
(pop)
(push)
(assert (le x0 weka.core.Instances))
(check-sat)
(pop)
(push)
(assert (not (le x0 weka.core.Instances)))
(check-sat)
(pop)
(push)
(assert (= x1 java.lang.Boolean))
(check-sat)
(push)
(assert (= x1 java.lang.Boolean))
(check-sat)
(push)
(assert (le x0 weka.core.Instances))
(check-sat)
(pop)
(push)
(assert (not (le x0 weka.core.Instances)))
(check-sat)
(pop)
(pop)
(push)
(assert (not (= x1 java.lang.Boolean)))
(check-sat)
(pop)
(pop)
(push)
(assert (not (= x1 java.lang.Boolean)))
(check-sat)
(pop)
(pop)
(push)
(assert (not (le x0 weka.core.Instances)))
(check-sat)
(push)
(assert (le x0 weka.core.Instances))
(check-sat)
(pop)
(push)
(assert (not (le x0 weka.core.Instances)))
(check-sat)
(push)
(assert (= x1 java.lang.Boolean))
(check-sat)
(pop)
(push)
(assert (not (= x1 java.lang.Boolean)))
(check-sat)
(pop)
(pop)
(push)
(assert (le x0 weka.core.Instances))
(check-sat)
(pop)
(push)
(assert (not (le x0 weka.core.Instances)))
(check-sat)
(pop)
(push)
(assert (le x0 weka.core.Instances))
(check-sat)
(pop)
(push)
(assert (not (le x0 weka.core.Instances)))
(check-sat)
(pop)
(push)
(assert (= x1 java.lang.Boolean))
(check-sat)
(push)
(assert (= x1 java.lang.Boolean))
(check-sat)
(pop)
(push)
(assert (not (= x1 java.lang.Boolean)))
(check-sat)
(pop)
(pop)
(push)
(assert (not (= x1 java.lang.Boolean)))
(check-sat)
(pop)
(pop)
(pop)
(push)
(assert (not (= x1 java.lang.Boolean)))
(check-sat)
(push)
(assert (= x1 java.lang.Boolean))
(check-sat)
(pop)
(push)
(assert (not (= x1 java.lang.Boolean)))
(check-sat)
(push)
(assert (= x0 java.lang.String))
(check-sat)
(push)
(assert (= x1 java.lang.Boolean))
(check-sat)
(pop)
(push)
(assert (not (= x1 java.lang.Boolean)))
(check-sat)
(pop)
(push)
(assert (= x1 java.lang.Boolean))
(check-sat)
(pop)
(push)
(assert (not (= x1 java.lang.Boolean)))
(check-sat)
(pop)
(pop)
(push)
(assert (not (= x0 java.lang.String)))
(check-sat)
(push)
(assert (= x0 java.lang.String))
(check-sat)
(pop)
(push)
(assert (not (= x0 java.lang.String)))
(check-sat)
(pop)
(push)
(assert (= x1 java.lang.Boolean))
(check-sat)
(pop)
(push)
(assert (not (= x1 java.lang.Boolean)))
(check-sat)
(push)
(assert (= x0 java.lang.String))
(check-sat)
(pop)
(push)
(assert (not (= x0 java.lang.String)))
(check-sat)
(pop)
(pop)
(pop)
(push)
(assert (= x1 java.lang.Boolean))
(check-sat)
(pop)
(push)
(assert (not (= x1 java.lang.Boolean)))
(check-sat)
(pop)
(push)
(assert (le x0 weka.core.Instance))
(check-sat)
(pop)
(push)
(assert (not (le x0 weka.core.Instance)))
(check-sat)
(pop)
(pop)
(push)
(assert (not (le x0 weka.core.SerializedObject)))
(check-sat)
(push)
(assert (= x0 java.lang.String))
(check-sat)
(pop)
(push)
(assert (not (= x0 java.lang.String)))
(check-sat)
(pop)
(push)
(assert (= x0 java.lang.String))
(check-sat)
(push)
(assert (= x1 java.lang.Boolean))
(check-sat)
(pop)
(push)
(assert (not (= x1 java.lang.Boolean)))
(check-sat)
(pop)
(pop)
(push)
(assert (not (= x0 java.lang.String)))
(check-sat)
(pop)
(pop)
(push)
(assert (le x0 weka.core.SerializedObject))
(check-sat)
(pop)
(push)
(assert (= x1 java.lang.Boolean))
(check-sat)
(pop)
(push)
(assert (not (= x1 java.lang.Boolean)))
(check-sat)
(pop)
(push)
(assert (= x1 java.lang.Boolean))
(check-sat)
(pop)
(push)
(assert (not (= x1 java.lang.Boolean)))
(check-sat)
(push)
(assert (= x1 java.lang.Boolean))
(check-sat)
(pop)
(push)
(assert (not (= x1 java.lang.Boolean)))
(check-sat)
(push)
(assert (le x0 weka.core.Instance))
(check-sat)
(pop)
(push)
(assert (not (le x0 weka.core.Instance)))
(check-sat)
(pop)
(pop)
(push)
(assert (= x1 java.lang.Boolean))
(check-sat)
(pop)
(push)
(assert (not (= x1 java.lang.Boolean)))
(check-sat)
(pop)
(push)
(assert (le x0 weka.core.Instances))
(check-sat)
(push)
(assert (le x0 weka.core.Instances))
(check-sat)
(pop)
(push)
(assert (not (le x0 weka.core.Instances)))
(check-sat)
(pop)
(push)
(assert (= x1 java.lang.Boolean))
(check-sat)
(pop)
(push)
(assert (not (= x1 java.lang.Boolean)))
(check-sat)
(push)
(assert (le x0 weka.core.Instances))
(check-sat)
(pop)
(push)
(assert (not (le x0 weka.core.Instances)))
(check-sat)
(pop)
(pop)
(push)
(assert (= x1 java.lang.Boolean))
(check-sat)
(pop)
(push)
(assert (not (= x1 java.lang.Boolean)))
(check-sat)
(pop)
(push)
(assert (= x1 java.lang.Boolean))
(check-sat)
(pop)
(push)
(assert (not (= x1 java.lang.Boolean)))
(check-sat)
(pop)
(push)
(assert (= x1 java.lang.Boolean))
(check-sat)
(pop)
(push)
(assert (not (= x1 java.lang.Boolean)))
(check-sat)
(push)
(assert (= x1 java.lang.Boolean))
(check-sat)
(pop)
(push)
(assert (not (= x1 java.lang.Boolean)))
(check-sat)
(pop)
(pop)
(pop)
(push)
(assert (not (le x0 weka.core.Instances)))
(check-sat)
(push)
(assert (le x0 weka.core.Instances))
(check-sat)
(pop)
(push)
(assert (not (le x0 weka.core.Instances)))
(check-sat)
(pop)
(push)
(assert (le x0 weka.core.Instances))
(check-sat)
(pop)
(push)
(assert (not (le x0 weka.core.Instances)))
(check-sat)
(pop)
(pop)
(pop)
(push)
(assert (le x0 weka.core.Instance))
(check-sat)
(pop)
(push)
(assert (not (le x0 weka.core.Instance)))
(check-sat)
(push)
(assert (= x1 java.lang.Boolean))
(check-sat)
(pop)
(push)
(assert (not (= x1 java.lang.Boolean)))
(check-sat)
(push)
(assert (le x0 weka.core.SparseInstance))
(check-sat)
(pop)
(push)
(assert (le x0 weka.core.Instance))
(check-sat)
(push)
(assert (not (le x0 weka.core.SparseInstance)))
(check-sat)
(pop)
(pop)
(pop)
(push)
(assert (le x0 weka.core.Instance))
(check-sat)
(pop)
(push)
(assert (not (le x0 weka.core.Instance)))
(check-sat)
(pop)
(push)
(assert (le x0 weka.core.Instance))
(check-sat)
(pop)
(push)
(assert (not (le x0 weka.core.Instance)))
(check-sat)
(push)
(assert (le x0 java.lang.Object))
(check-sat)
(pop)
(push)
(assert (not (le x0 java.lang.Object)))
(check-sat)
(push)
(assert (= x1 java.lang.Boolean))
(check-sat)
(pop)
(push)
(assert (not (= x1 java.lang.Boolean)))
(check-sat)
(pop)
(push)
(assert (= x1 java.lang.Boolean))
(check-sat)
(pop)
(push)
(assert (not (= x1 java.lang.Boolean)))
(check-sat)
(pop)
(push)
(assert (le x0 weka.core.Instance))
(check-sat)
(pop)
(push)
(assert (not (le x0 weka.core.Instance)))
(check-sat)
(pop)
(pop)
(pop)
(push)
(assert (= x1 java.lang.Boolean))
(check-sat)
(pop)
(push)
(assert (not (= x1 java.lang.Boolean)))
(check-sat)
(push)
(assert (= x1 java.lang.Boolean))
(check-sat)
(pop)
(push)
(assert (not (= x1 java.lang.Boolean)))
(check-sat)
(pop)
(push)
(assert (le x0 weka.core.Instance))
(check-sat)
(pop)
(push)
(assert (not (le x0 weka.core.Instance)))
(check-sat)
(pop)
(pop)
(pop)
(push)
(assert (le x0 weka.core.Instance))
(check-sat)
(pop)
(push)
(assert (not (le x0 weka.core.Instance)))
(check-sat)
(pop)
(push)
(assert (= x0 java.lang.Class))
(check-sat)
(push)
(assert (= x1 java.lang.Boolean))
(check-sat)
(pop)
(push)
(assert (not (= x1 java.lang.Boolean)))
(check-sat)
(pop)
(push)
(assert (= x0 java.lang.Class))
(check-sat)
(pop)
(push)
(assert (not (= x0 java.lang.Class)))
(check-sat)
(pop)
(push)
(assert (= x1 java.lang.Boolean))
(check-sat)
(pop)
(push)
(assert (not (= x1 java.lang.Boolean)))
(check-sat)
(pop)
(push)
(assert (= x0 java.lang.Class))
(check-sat)
(push)
(assert (= x1 java.lang.Boolean))
(check-sat)
(pop)
(push)
(assert (not (= x1 java.lang.Boolean)))
(check-sat)
(pop)
(pop)
(push)
(assert (not (= x0 java.lang.Class)))
(check-sat)
(pop)
(push)
(assert (= x1 java.lang.Boolean))
(check-sat)
(pop)
(push)
(assert (not (= x1 java.lang.Boolean)))
(check-sat)
(pop)
(push)
(assert (= x1 java.lang.Boolean))
(check-sat)
(pop)
(push)
(assert (not (= x1 java.lang.Boolean)))
(check-sat)
(pop)
(pop)
(push)
(assert (not (= x0 java.lang.Class)))
(check-sat)
(pop)
(pop)
